
;this file is automatically generated: Tue Oct 27 10:35:00 CST 2020

;declarations generated

(declare-fun oclExcludes ( Int Int) Bool)
(declare-fun Cardinality ( Int) Int)
(declare-fun obj_242b7268_88cc_48c1_b67f_108ee41b3667 ( Int) Int)
(declare-fun oclSelect ( Int Bool) Int)
(declare-fun type_6a011f0a_d7d0_4d14_859c_8a4bf3b41702_Class28 ( Int) Bool)
(declare-fun Enum0 ( Int) Int)
(declare-fun Enum1 ( Int) Int)
(declare-fun Enum2 ( Int) Int)
(declare-fun container_ ( Int) Int)
(declare-fun type_6a011f0a_d7d0_4d14_859c_8a4bf3b41702_Class24 ( Int) Bool)
(declare-fun type_6a011f0a_d7d0_4d14_859c_8a4bf3b41702_Class8 ( Int) Bool)
(declare-fun oclIncludes ( Int Int) Bool)
(declare-fun class28_Class28BoolAttr0 ( Int) Bool)
(declare-fun ObjAt ( Int Int) Int)

;formula(s) generated
(assert (! (forall ((v Int)) (=> (and (and ( type_6a011f0a_d7d0_4d14_859c_8a4bf3b41702_Class28 v )  ( type_6a011f0a_d7d0_4d14_859c_8a4bf3b41702_Class24 v ) ) ( type_6a011f0a_d7d0_4d14_859c_8a4bf3b41702_Class8 v ) ) (not ( class28_Class28BoolAttr0 ( obj_242b7268_88cc_48c1_b67f_108ee41b3667 v )  )  ))):named l0))
(assert (exists ((o Int)) (and (and ( type_6a011f0a_d7d0_4d14_859c_8a4bf3b41702_Class28 ( obj_242b7268_88cc_48c1_b67f_108ee41b3667 o )  )  ( type_6a011f0a_d7d0_4d14_859c_8a4bf3b41702_Class24 ( obj_242b7268_88cc_48c1_b67f_108ee41b3667 o )  ) ) ( type_6a011f0a_d7d0_4d14_859c_8a4bf3b41702_Class8 ( obj_242b7268_88cc_48c1_b67f_108ee41b3667 o )  ) )))

 ;end of formula 